p cnf 15 42
-15 14 -12 0
15 14 -2 0
15 -13 11 0
-15 -13 10 0
-15 12 8 0
-15 9 2 0
15 -8 -6 0
-15 8 2 0
-15 -7 2 0
-15 -3 -2 0
14 13 -5 0
-14 13 -2 0
-14 12 6 0
14 -12 -1 0
-14 -4 -1 0
-13 -12 -11 0
-13 -12 4 0
-13 -12 2 0
13 8 -5 0
13 -8 3 0
13 3 2 0
-12 -11 -8 0
12 -10 8 0
-12 -9 8 0
-12 8 2 0
-12 4 2 0
-11 -10 9 0
-11 -9 8 0
-11 9 5 0
-11 -7 2 0
11 -7 -1 0
-10 -8 -7 0
-10 7 -2 0
9 8 6 0
9 5 3 0
9 4 3 0
8 -6 2 0
-8 6 -1 0
7 5 1 0
-6 5 -1 0
-6 3 1 0
-5 -3 1 0
